pure_adt/prod_prop_33.smt2
(set-logic HORN)
(declare-datatypes ((Nat_556 0)) (((Z_1981 ) (S_445 (projS_168 Nat_556)))))
(declare-fun diseqNat_556 (Nat_556 Nat_556) Bool)
(declare-fun projS_169 (Nat_556 Nat_556) Bool)
(declare-fun isZ_412 (Nat_556) Bool)
(declare-fun isS_412 (Nat_556) Bool)
(assert (forall ((x_54708 Nat_556))
	(projS_169 x_54708 (S_445 x_54708))))
(assert (isZ_412 Z_1981))
(assert (forall ((x_54710 Nat_556))
	(isS_412 (S_445 x_54710))))
(assert (forall ((x_54711 Nat_556))
	(diseqNat_556 Z_1981 (S_445 x_54711))))
(assert (forall ((x_54712 Nat_556))
	(diseqNat_556 (S_445 x_54712) Z_1981)))
(assert (forall ((x_54713 Nat_556) (x_54714 Nat_556))
	(=> (diseqNat_556 x_54713 x_54714)
	    (diseqNat_556 (S_445 x_54713) (S_445 x_54714)))))
(declare-fun one_18 (Nat_556) Bool)
(assert (one_18 (S_445 Z_1981)))
(declare-fun x_54680 (Nat_556 Nat_556 Nat_556) Bool)
(assert (forall ((x_54689 Nat_556) (z_1982 Nat_556) (y_2219 Nat_556))
	(=> (x_54680 x_54689 z_1982 y_2219)
	    (x_54680 (S_445 x_54689) (S_445 z_1982) y_2219))))
(assert (forall ((x_54690 Nat_556))
	(x_54680 x_54690 Z_1981 x_54690)))
(declare-fun x_54682 (Nat_556 Nat_556 Nat_556) Bool)
(assert (forall ((x_54691 Nat_556) (x_54692 Nat_556) (z_1983 Nat_556) (y_2220 Nat_556))
	(=>	(and (x_54682 x_54692 z_1983 y_2220)
			(x_54680 x_54691 y_2220 x_54692))
		(x_54682 x_54691 (S_445 z_1983) y_2220))))
(assert (forall ((y_2220 Nat_556))
	(x_54682 Z_1981 Z_1981 y_2220)))
(declare-fun fac_0 (Nat_556 Nat_556) Bool)
(assert (forall ((x_54695 Nat_556) (x_54696 Nat_556) (y_2221 Nat_556))
	(=>	(and (fac_0 x_54696 y_2221)
			(x_54682 x_54695 (S_445 y_2221) x_54696))
		(fac_0 x_54695 (S_445 y_2221)))))
(assert (fac_0 (S_445 Z_1981) Z_1981))
(declare-fun qfac_0 (Nat_556 Nat_556 Nat_556) Bool)
(assert (forall ((x_54699 Nat_556) (x_54700 Nat_556) (z_1984 Nat_556) (y_2222 Nat_556))
	(=>	(and (x_54682 x_54700 (S_445 z_1984) y_2222)
			(qfac_0 x_54699 z_1984 x_54700))
		(qfac_0 x_54699 (S_445 z_1984) y_2222))))
(assert (forall ((x_54702 Nat_556))
	(qfac_0 x_54702 Z_1981 x_54702)))
(assert (forall ((x_54703 Nat_556) (x_54704 Nat_556) (x_54705 Nat_556) (x_54686 Nat_556))
	(=>	(and true
			(diseqNat_556 x_54703 x_54705)
			(fac_0 x_54703 x_54686)
			(one_18 x_54704)
			(qfac_0 x_54705 x_54686 x_54704))
		false)))
(check-sat)
